N: 5000
R: 1000
Capacities: 1241987
------
Total value: 1241987
Total weight: 1241987
Packed Items: [0, 1, 2, 3, 4, 5, 6, 7, 8, 9, 10, 11, 12, 13, 14, 15, 16, 17, 18, 19, 20, 21, 22, 23, 24, 25, 26, 27, 28, 29, 30, 31, 32, 33, 34, 35, 36, 37, 38, 39, 40, 41, 42, 43, 44, 45, 46, 47, 48, 49, 50, 51, 52, 53, 54, 55, 56, 57, 58, 59, 60, 61, 62, 63, 64, 65, 66, 67, 68, 69, 70, 71, 72, 73, 74, 75, 76, 77, 78, 79, 80, 81, 82, 83, 84, 85, 86, 87, 88, 89, 90, 91, 92, 93, 94, 95, 96, 97, 98, 99, 100, 101, 102, 103, 104, 105, 106, 107, 108, 109, 110, 111, 112, 113, 114, 115, 116, 117, 118, 119, 120, 121, 122, 123, 124, 125, 126, 127, 128, 129, 130, 131, 132, 133, 134, 135, 136, 137, 138, 139, 140, 141, 142, 143, 144, 145, 146, 147, 148, 149, 150, 151, 152, 153, 154, 155, 156, 157, 158, 159, 160, 161, 162, 163, 164, 165, 166, 167, 168, 169, 170, 171, 172, 173, 174, 175, 176, 177, 178, 179, 180, 181, 182, 183, 184, 185, 186, 187, 188, 189, 190, 191, 192, 193, 194, 195, 196, 197, 198, 199, 200, 201, 202, 203, 204, 205, 206, 207, 208, 209, 210, 211, 212, 213, 214, 215, 216, 217, 218, 219, 220, 221, 222, 223, 224, 225, 226, 227, 228, 229, 230, 231, 232, 233, 234, 235, 236, 237, 238, 239, 240, 241, 242, 243, 244, 245, 246, 247, 248, 249, 250, 251, 252, 253, 254, 255, 256, 257, 258, 259, 260, 261, 262, 263, 264, 265, 266, 267, 268, 269, 270, 271, 272, 273, 274, 275, 276, 277, 278, 279, 280, 281, 282, 283, 284, 285, 286, 287, 288, 289, 290, 291, 292, 293, 294, 295, 296, 297, 298, 299, 300, 301, 302, 303, 304, 305, 306, 307, 308, 309, 310, 311, 312, 313, 314, 315, 316, 317, 318, 319, 320, 321, 322, 323, 324, 325, 326, 327, 328, 329, 330, 331, 332, 333, 334, 335, 336, 337, 338, 339, 340, 341, 342, 343, 344, 345, 346, 347, 348, 349, 350, 351, 352, 353, 354, 355, 356, 357, 358, 359, 360, 361, 362, 363, 364, 365, 366, 367, 368, 369, 370, 371, 372, 373, 374, 375, 376, 377, 378, 379, 380, 381, 382, 383, 384, 385, 386, 387, 388, 389, 390, 391, 392, 393, 394, 395, 396, 397, 398, 399, 400, 401, 402, 403, 404, 405, 406, 407, 408, 409, 410, 411, 412, 413, 414, 415, 416, 417, 418, 419, 420, 421, 422, 423, 424, 425, 426, 427, 428, 429, 430, 431, 432, 433, 434, 435, 436, 437, 438, 439, 440, 441, 442, 443, 444, 445, 446, 447, 448, 449, 450, 451, 452, 453, 454, 455, 456, 457, 458, 459, 460, 461, 462, 463, 464, 465, 466, 467, 468, 469, 470, 471, 472, 473, 474, 475, 476, 477, 478, 479, 480, 481, 482, 483, 484, 485, 486, 487, 488, 489, 490, 491, 492, 493, 494, 495, 496, 497, 498, 499, 500, 501, 502, 503, 504, 505, 506, 507, 508, 509, 510, 511, 512, 513, 514, 515, 516, 517, 518, 519, 520, 521, 522, 523, 524, 525, 526, 527, 528, 529, 530, 531, 532, 533, 534, 535, 536, 537, 538, 539, 540, 541, 542, 543, 544, 545, 546, 547, 548, 549, 550, 551, 552, 553, 554, 555, 556, 557, 558, 559, 560, 561, 562, 563, 564, 565, 566, 567, 568, 569, 570, 571, 572, 573, 574, 575, 576, 577, 578, 579, 580, 581, 582, 583, 584, 585, 586, 587, 588, 589, 590, 591, 592, 593, 594, 595, 596, 597, 598, 599, 600, 601, 602, 603, 604, 605, 606, 607, 608, 609, 610, 611, 612, 613, 614, 615, 616, 617, 618, 619, 620, 621, 622, 623, 624, 625, 626, 627, 628, 629, 630, 631, 632, 633, 634, 635, 636, 637, 638, 639, 640, 641, 642, 643, 644, 645, 646, 647, 648, 649, 650, 651, 652, 653, 654, 655, 656, 657, 658, 659, 660, 661, 662, 663, 664, 665, 666, 667, 668, 669, 670, 671, 672, 673, 674, 675, 676, 677, 678, 679, 680, 681, 682, 683, 684, 685, 686, 687, 688, 689, 690, 691, 692, 693, 694, 695, 696, 697, 698, 699, 700, 701, 702, 703, 704, 705, 706, 707, 708, 709, 710, 711, 712, 713, 714, 715, 716, 717, 718, 719, 720, 721, 722, 723, 724, 725, 726, 727, 728, 729, 730, 731, 732, 733, 734, 735, 736, 737, 738, 739, 740, 741, 742, 743, 744, 745, 746, 747, 748, 749, 750, 751, 752, 753, 754, 755, 756, 757, 758, 759, 760, 761, 762, 763, 764, 765, 766, 767, 768, 769, 770, 771, 772, 773, 774, 775, 776, 777, 778, 779, 780, 781, 782, 783, 784, 785, 786, 787, 788, 789, 790, 791, 792, 793, 794, 795, 796, 797, 798, 799, 800, 801, 802, 803, 804, 805, 806, 807, 808, 809, 810, 811, 812, 813, 814, 815, 816, 817, 818, 819, 820, 821, 822, 823, 824, 825, 826, 827, 828, 829, 830, 831, 832, 833, 834, 835, 836, 837, 838, 839, 840, 841, 842, 843, 844, 845, 846, 847, 848, 849, 850, 851, 852, 853, 854, 855, 856, 857, 858, 859, 860, 861, 862, 863, 864, 865, 866, 867, 868, 869, 870, 871, 872, 873, 874, 875, 876, 877, 878, 879, 880, 881, 882, 883, 884, 885, 886, 887, 888, 889, 890, 891, 892, 893, 894, 895, 896, 897, 898, 899, 900, 901, 902, 903, 904, 905, 906, 907, 908, 909, 910, 911, 912, 913, 914, 915, 916, 917, 918, 919, 920, 921, 922, 923, 924, 925, 926, 927, 928, 929, 930, 931, 932, 933, 934, 935, 936, 937, 938, 939, 940, 941, 942, 943, 944, 945, 946, 947, 948, 949, 950, 951, 952, 953, 954, 955, 956, 957, 958, 959, 960, 961, 962, 963, 964, 965, 966, 967, 968, 969, 970, 971, 972, 973, 974, 975, 976, 977, 978, 979, 980, 981, 982, 983, 984, 985, 986, 987, 988, 989, 990, 991, 992, 993, 994, 995, 996, 997, 998, 999, 1000, 1001, 1002, 1003, 1004, 1005, 1006, 1007, 1008, 1009, 1010, 1011, 1012, 1013, 1014, 1015, 1016, 1017, 1018, 1019, 1020, 1021, 1022, 1023, 1024, 1025, 1026, 1027, 1028, 1029, 1030, 1031, 1032, 1033, 1034, 1035, 1036, 1037, 1038, 1039, 1040, 1041, 1042, 1043, 1044, 1045, 1046, 1047, 1048, 1049, 1050, 1051, 1052, 1053, 1054, 1055, 1056, 1057, 1058, 1059, 1060, 1061, 1062, 1063, 1064, 1065, 1066, 1067, 1068, 1069, 1070, 1071, 1072, 1073, 1074, 1075, 1076, 1077, 1078, 1079, 1080, 1081, 1082, 1083, 1084, 1085, 1086, 1087, 1088, 1089, 1090, 1091, 1092, 1093, 1094, 1095, 1096, 1097, 1098, 1099, 1100, 1101, 1102, 1103, 1104, 1105, 1106, 1107, 1108, 1109, 1110, 1111, 1112, 1113, 1114, 1115, 1116, 1117, 1118, 1119, 1120, 1121, 1122, 1123, 1124, 1125, 1126, 1127, 1128, 1129, 1130, 1131, 1132, 1133, 1134, 1135, 1136, 1137, 1138, 1139, 1140, 1141, 1142, 1143, 1144, 1145, 1146, 1147, 1148, 1149, 1150, 1151, 1152, 1153, 1154, 1155, 1156, 1157, 1158, 1159, 1160, 1161, 1162, 1163, 1164, 1165, 1166, 1167, 1168, 1169, 1170, 1171, 1172, 1173, 1174, 1175, 1176, 1177, 1178, 1179, 1180, 1181, 1182, 1183, 1184, 1185, 1186, 1187, 1188, 1189, 1190, 1191, 1192, 1193, 1194, 1195, 1196, 1197, 1198, 1199, 1200, 1201, 1202, 1203, 1204, 1205, 1206, 1207, 1208, 1209, 1210, 1211, 1212, 1213, 1214, 1215, 1216, 1217, 1218, 1219, 1220, 1221, 1222, 1223, 1224, 1225, 1226, 1227, 1228, 1229, 1230, 1231, 1232, 1233, 1234, 1235, 1236, 1237, 1238, 1239, 1240, 1241, 1242, 1243, 1244, 1245, 1246, 1247, 1248, 1249, 1250, 1251, 1252, 1253, 1254, 1255, 1256, 1257, 1258, 1259, 1260, 1261, 1262, 1263, 1264, 1265, 1266, 1267, 1268, 1269, 1270, 1271, 1272, 1273, 1274, 1275, 1276, 1277, 1278, 1279, 1280, 1281, 1282, 1283, 1284, 1285, 1286, 1287, 1288, 1289, 1290, 1291, 1292, 1293, 1294, 1295, 1296, 1297, 1298, 1299, 1300, 1301, 1302, 1303, 1304, 1305, 1306, 1307, 1308, 1309, 1310, 1311, 1312, 1313, 1314, 1315, 1316, 1317, 1318, 1319, 1320, 1321, 1322, 1323, 1324, 1325, 1326, 1327, 1328, 1329, 1330, 1331, 1332, 1333, 1334, 1335, 1336, 1337, 1338, 1339, 1340, 1341, 1342, 1343, 1344, 1345, 1346, 1347, 1348, 1349, 1350, 1351, 1352, 1353, 1354, 1355, 1356, 1357, 1358, 1359, 1360, 1361, 1362, 1363, 1364, 1365, 1366, 1367, 1368, 1369, 1370, 1371, 1372, 1373, 1374, 1375, 1376, 1377, 1378, 1379, 1380, 1381, 1382, 1383, 1384, 1385, 1386, 1387, 1388, 1389, 1390, 1391, 1392, 1393, 1394, 1395, 1396, 1397, 1398, 1399, 1400, 1401, 1402, 1403, 1404, 1405, 1406, 1407, 1408, 1409, 1410, 1411, 1412, 1413, 1414, 1415, 1416, 1417, 1418, 1419, 1420, 1421, 1422, 1423, 1424, 1425, 1426, 1427, 1428, 1429, 1430, 1431, 1432, 1433, 1434, 1435, 1436, 1437, 1438, 1439, 1440, 1441, 1442, 1443, 1444, 1445, 1446, 1447, 1448, 1449, 1450, 1451, 1452, 1453, 1454, 1455, 1456, 1457, 1458, 1459, 1460, 1461, 1462, 1463, 1464, 1465, 1466, 1467, 1468, 1469, 1470, 1471, 1472, 1473, 1474, 1475, 1476, 1477, 1478, 1479, 1480, 1481, 1482, 1483, 1484, 1485, 1486, 1487, 1488, 1489, 1490, 1491, 1492, 1493, 1494, 1495, 1496, 1497, 1498, 1499, 1500, 1501, 1502, 1503, 1504, 1505, 1506, 1507, 1508, 1509, 1510, 1511, 1512, 1513, 1514, 1515, 1516, 1517, 1518, 1519, 1520, 1521, 1522, 1523, 1524, 1525, 1526, 1527, 1528, 1529, 1530, 1531, 1532, 1533, 1534, 1535, 1536, 1537, 1538, 1539, 1540, 1541, 1542, 1543, 1544, 1545, 1546, 1547, 1548, 1549, 1550, 1551, 1552, 1553, 1554, 1555, 1556, 1557, 1558, 1559, 1560, 1561, 1562, 1563, 1564, 1565, 1566, 1567, 1568, 1569, 1570, 1571, 1572, 1573, 1574, 1575, 1576, 1577, 1578, 1579, 1580, 1581, 1582, 1583, 1584, 1585, 1586, 1587, 1588, 1589, 1590, 1591, 1592, 1593, 1594, 1595, 1596, 1597, 1598, 1599, 1600, 1601, 1602, 1603, 1604, 1605, 1606, 1607, 1608, 1609, 1610, 1611, 1612, 1613, 1614, 1615, 1616, 1617, 1618, 1619, 1620, 1621, 1622, 1623, 1624, 1625, 1626, 1627, 1628, 1629, 1630, 1631, 1632, 1633, 1634, 1635, 1636, 1637, 1638, 1639, 1640, 1641, 1642, 1643, 1644, 1645, 1646, 1647, 1648, 1649, 1650, 1651, 1652, 1653, 1654, 1655, 1656, 1657, 1658, 1659, 1660, 1661, 1662, 1663, 1664, 1665, 1666, 1667, 1668, 1669, 1670, 1671, 1672, 1673, 1674, 1675, 1676, 1677, 1678, 1679, 1680, 1681, 1682, 1683, 1684, 1685, 1686, 1687, 1688, 1689, 1690, 1691, 1692, 1693, 1694, 1695, 1696, 1697, 1698, 1699, 1700, 1701, 1702, 1703, 1704, 1705, 1706, 1707, 1708, 1709, 1710, 1711, 1712, 1713, 1714, 1715, 1716, 1717, 1718, 1719, 1720, 1721, 1722, 1723, 1724, 1725, 1726, 1727, 1728, 1729, 1730, 1731, 1732, 1733, 1734, 1735, 1736, 1737, 1738, 1739, 1740, 1741, 1742, 1743, 1744, 1745, 1746, 1747, 1748, 1749, 1750, 1751, 1752, 1753, 1754, 1755, 1756, 1757, 1758, 1759, 1760, 1761, 1762, 1763, 1764, 1765, 1766, 1767, 1768, 1769, 1770, 1771, 1772, 1773, 1774, 1775, 1776, 1777, 1778, 1779, 1780, 1781, 1782, 1783, 1784, 1785, 1786, 1787, 1788, 1789, 1790, 1791, 1792, 1793, 1794, 1795, 1796, 1797, 1798, 1799, 1800, 1801, 1802, 1803, 1804, 1805, 1806, 1807, 1808, 1809, 1810, 1811, 1812, 1813, 1814, 1815, 1816, 1817, 1818, 1819, 1820, 1821, 1822, 1823, 1824, 1825, 1826, 1827, 1828, 1829, 1830, 1831, 1832, 1833, 1834, 1835, 1836, 1837, 1838, 1839, 1840, 1841, 1842, 1843, 1844, 1845, 1846, 1847, 1848, 1849, 1850, 1851, 1852, 1853, 1854, 1855, 1856, 1857, 1858, 1859, 1860, 1861, 1862, 1863, 1864, 1865, 1866, 1867, 1868, 1869, 1870, 1871, 1872, 1873, 1874, 1875, 1876, 1877, 1878, 1879, 1880, 1881, 1882, 1883, 1884, 1885, 1886, 1887, 1888, 1889, 1890, 1891, 1892, 1893, 1894, 1895, 1896, 1897, 1898, 1899, 1900, 1901, 1902, 1903, 1904, 1905, 1906, 1907, 1908, 1909, 1910, 1911, 1912, 1913, 1914, 1915, 1916, 1917, 1918, 1919, 1920, 1921, 1922, 1923, 1924, 1925, 1926, 1927, 1928, 1929, 1930, 1931, 1932, 1933, 1934, 1935, 1936, 1937, 1938, 1939, 1940, 1941, 1942, 1943, 1944, 1945, 1946, 1947, 1948, 1949, 1950, 1951, 1952, 1953, 1954, 1955, 1956, 1957, 1958, 1959, 1960, 1961, 1962, 1963, 1964, 1965, 1966, 1967, 1968, 1969, 1970, 1971, 1972, 1973, 1974, 1975, 1976, 1977, 1978, 1979, 1980, 1981, 1982, 1983, 1984, 1985, 1986, 1987, 1988, 1989, 1990, 1991, 1992, 1993, 1994, 1995, 1996, 1997, 1998, 1999, 2000, 2001, 2002, 2003, 2004, 2005, 2006, 2007, 2008, 2009, 2010, 2011, 2012, 2013, 2014, 2015, 2016, 2017, 2018, 2019, 2020, 2021, 2022, 2023, 2024, 2025, 2026, 2027, 2028, 2029, 2030, 2031, 2032, 2033, 2034, 2035, 2036, 2037, 2038, 2039, 2040, 2041, 2042, 2043, 2044, 2045, 2046, 2047, 2048, 2049, 2050, 2051, 2052, 2053, 2054, 2055, 2056, 2057, 2058, 2059, 2060, 2061, 2062, 2063, 2064, 2065, 2066, 2067, 2068, 2069, 2070, 2071, 2072, 2073, 2074, 2075, 2076, 2077, 2078, 2079, 2080, 2081, 2082, 2083, 2084, 2085, 2086, 2087, 2088, 2089, 2090, 2091, 2092, 2093, 2094, 2095, 2096, 2097, 2098, 2099, 2100, 2101, 2102, 2103, 2104, 2105, 2106, 2107, 2108, 2109, 2110, 2111, 2112, 2113, 2114, 2115, 2116, 2117, 2118, 2119, 2120, 2121, 2122, 2123, 2124, 2125, 2126, 2127, 2128, 2129, 2130, 2131, 2132, 2133, 2134, 2135, 2136, 2137, 2138, 2139, 2140, 2141, 2142, 2143, 2144, 2145, 2146, 2147, 2148, 2149, 2150, 2151, 2152, 2153, 2154, 2155, 2156, 2157, 2158, 2159, 2160, 2161, 2162, 2163, 2164, 2165, 2166, 2167, 2168, 2169, 2170, 2171, 2172, 2173, 2174, 2175, 2176, 2177, 2178, 2179, 2181, 2182, 2183, 2184, 2185, 2186, 2187, 2188, 2189, 2190, 2191, 2192, 2193, 2194, 2195, 2196, 2197, 2198, 2199, 2200, 2201, 2202, 2203, 2204, 2205, 2206, 2207, 2208, 2209, 2210, 2211, 2212, 2213, 2214, 2215, 2216, 2217, 2218, 2219, 2220, 2221, 2222, 2223, 2224, 2225, 2226, 2227, 2228, 2229, 2230, 2231, 2232, 2233, 2234, 2235, 2236, 2237, 2238, 2239, 2240, 2241, 2242, 2243, 2244, 2245, 2246, 2247, 2248, 2249, 2250, 2251, 2252, 2253, 2254, 2255, 2256, 2257, 2258, 2259, 2260, 2261, 2262, 2263, 2264, 2265, 2266, 2267, 2268, 2269, 2270, 2271, 2272, 2273, 2274, 2275, 2276, 2277, 2278, 2279, 2280, 2281, 2282, 2283, 2284, 2285, 2286, 2287, 2288, 2289, 2290, 2291, 2292, 2293, 2294, 2295, 2296, 2297, 2298, 2299, 2300, 2301, 2302, 2303, 2304, 2305, 2306, 2307, 2308, 2309, 2310, 2311, 2312, 2313, 2314, 2315, 2316, 2317, 2318, 2319, 2320, 2321, 2322, 2323, 2324, 2325, 2326, 2327, 2328, 2329, 2330, 2331, 2332, 2333, 2334, 2335, 2336, 2337, 2338, 2339, 2340, 2341, 2342, 2343, 2344, 2345, 2346, 2347, 2348, 2349, 2350, 2351, 2352, 2353, 2354, 2355, 2356, 2357, 2358, 2359, 2360, 2361, 2362, 2363, 2364, 2365, 2366, 2367, 2368, 2369, 2370, 2371, 2372, 2373, 2374, 2375, 2376, 2377, 2378, 2379, 2380, 2381, 2382, 2383, 2384, 2385, 2386, 2387, 2388, 2389, 2390, 2391, 2392, 2393, 2394, 2395, 2396, 2397, 2398, 2399, 2400, 2401, 2402, 2403, 2404, 2406, 2408, 2409, 2410, 2411, 2412, 2413, 2414, 2415, 2416, 2417, 2418, 2419, 2420, 2421, 2422, 2423, 2424, 2425, 2426, 2427, 2428, 2429, 2430, 2431, 2432, 2433, 2434, 2435, 2436, 2437, 2440, 2441, 2442, 2446, ]
Packed Weights: [957, 948, 57, 85, 836, 736, 670, 309, 606, 607, 582, 159, 431, 394, 724, 995, 950, 545, 445, 269, 36, 28, 465, 319, 381, 892, 526, 561, 237, 24, 326, 137, 511, 999, 675, 182, 894, 797, 735, 907, 763, 790, 354, 981, 962, 162, 755, 716, 462, 531, 491, 925, 501, 832, 354, 883, 900, 462, 568, 921, 724, 487, 222, 325, 700, 167, 908, 269, 912, 310, 958, 707, 505, 518, 652, 588, 312, 208, 512, 935, 624, 76, 821, 726, 908, 192, 745, 59, 653, 274, 227, 876, 107, 523, 854, 245, 211, 881, 423, 717, 32, 363, 172, 673, 83, 955, 26, 730, 22, 256, 814, 158, 184, 692, 386, 44, 991, 152, 37, 345, 616, 743, 114, 338, 31, 449, 766, 740, 903, 756, 863, 706, 473, 226, 661, 317, 103, 448, 875, 128, 585, 393, 515, 144, 960, 260, 607, 420, 19, 558, 141, 57, 34, 162, 96, 636, 509, 984, 935, 995, 233, 445, 251, 592, 625, 801, 710, 257, 424, 527, 5, 36, 409, 112, 724, 241, 100, 182, 232, 218, 521, 465, 310, 642, 213, 907, 964, 729, 434, 512, 582, 52, 419, 526, 182, 94, 803, 367, 520, 922, 611, 290, 984, 373, 20, 686, 102, 306, 841, 673, 16, 452, 411, 486, 209, 589, 74, 285, 373, 936, 77, 755, 193, 572, 392, 464, 754, 396, 122, 122, 81, 851, 641, 960, 693, 25, 660, 778, 724, 498, 358, 458, 799, 269, 527, 478, 955, 805, 933, 837, 297, 232, 489, 260, 428, 680, 919, 586, 818, 96, 357, 998, 147, 417, 67, 87, 896, 989, 649, 129, 297, 232, 671, 682, 439, 524, 113, 541, 950, 756, 97, 517, 716, 258, 895, 461, 704, 405, 996, 783, 574, 145, 442, 30, 596, 882, 181, 511, 483, 405, 711, 937, 706, 473, 962, 331, 746, 659, 762, 853, 225, 622, 403, 667, 978, 635, 12, 465, 712, 884, 651, 817, 18, 944, 730, 607, 906, 885, 101, 816, 768, 200, 745, 587, 192, 805, 138, 613, 435, 254, 567, 468, 205, 967, 73, 4, 486, 838, 659, 755, 486, 675, 335, 267, 503, 28, 80, 754, 174, 751, 785, 405, 675, 788, 865, 135, 163, 382, 465, 295, 11, 558, 967, 367, 538, 383, 443, 871, 309, 650, 484, 539, 915, 77, 825, 305, 647, 796, 654, 393, 841, 93, 634, 392, 531, 851, 798, 629, 309, 233, 458, 233, 278, 958, 112, 819, 380, 365, 319, 78, 458, 167, 443, 292, 895, 922, 442, 640, 930, 327, 100, 238, 190, 679, 374, 357, 796, 234, 809, 633, 401, 824, 343, 879, 926, 503, 690, 949, 743, 752, 870, 936, 754, 980, 292, 623, 671, 368, 396, 175, 958, 355, 477, 894, 187, 961, 128, 29, 351, 360, 918, 884, 762, 437, 543, 237, 834, 390, 285, 638, 151, 317, 927, 96, 143, 205, 251, 421, 251, 343, 247, 241, 611, 337, 373, 768, 62, 145, 851, 430, 779, 133, 523, 846, 339, 769, 611, 395, 998, 393, 474, 620, 317, 838, 598, 589, 539, 985, 989, 841, 455, 412, 525, 47, 109, 996, 129, 938, 680, 916, 78, 306, 798, 9, 106, 351, 174, 147, 670, 92, 972, 650, 50, 899, 242, 482, 559, 139, 503, 61, 200, 919, 823, 523, 682, 876, 140, 493, 132, 117, 109, 212, 54, 216, 380, 623, 859, 905, 718, 508, 917, 163, 106, 818, 628, 211, 378, 298, 431, 428, 399, 798, 812, 563, 473, 285, 766, 987, 230, 704, 700, 659, 31, 552, 203, 195, 580, 646, 626, 743, 703, 476, 48, 773, 824, 836, 599, 39, 196, 109, 636, 545, 187, 956, 978, 900, 464, 292, 209, 825, 701, 278, 903, 569, 413, 416, 721, 456, 660, 123, 703, 273, 911, 215, 334, 539, 393, 526, 924, 202, 773, 694, 787, 448, 455, 346, 474, 255, 191, 477, 193, 470, 574, 310, 171, 606, 861, 223, 616, 659, 885, 683, 308, 208, 837, 300, 13, 871, 198, 314, 319, 256, 725, 343, 441, 420, 834, 19, 580, 132, 151, 607, 376, 65, 589, 915, 646, 496, 801, 916, 152, 300, 965, 926, 203, 704, 875, 592, 703, 524, 235, 214, 62, 666, 139, 622, 392, 437, 971, 392, 475, 380, 216, 225, 533, 818, 91, 946, 675, 54, 708, 402, 515, 101, 511, 520, 783, 581, 705, 735, 222, 25, 479, 130, 142, 322, 538, 616, 647, 943, 103, 558, 87, 671, 438, 141, 311, 661, 474, 945, 356, 341, 923, 606, 108, 785, 364, 948, 636, 805, 896, 510, 968, 26, 341, 838, 9, 673, 1000, 716, 863, 77, 541, 610, 436, 420, 791, 163, 45, 594, 967, 828, 674, 295, 905, 41, 247, 789, 895, 403, 910, 111, 597, 68, 234, 190, 7, 406, 501, 282, 652, 53, 518, 528, 404, 915, 127, 427, 460, 373, 974, 572, 517, 440, 438, 951, 800, 648, 163, 595, 128, 351, 24, 706, 978, 638, 570, 251, 443, 465, 423, 270, 220, 751, 953, 822, 622, 28, 303, 840, 973, 548, 569, 687, 248, 713, 366, 848, 462, 664, 557, 535, 461, 953, 755, 420, 506, 898, 748, 654, 959, 118, 598, 625, 455, 964, 968, 391, 617, 766, 697, 363, 799, 349, 147, 665, 650, 409, 499, 988, 809, 407, 912, 571, 405, 647, 784, 897, 671, 668, 401, 41, 455, 115, 943, 363, 606, 734, 179, 834, 326, 81, 600, 403, 920, 445, 95, 19, 31, 494, 715, 52, 330, 479, 898, 971, 876, 639, 576, 223, 613, 166, 304, 831, 569, 727, 466, 280, 504, 574, 242, 846, 982, 182, 243, 812, 722, 225, 586, 239, 863, 588, 511, 162, 406, 473, 362, 180, 199, 701, 925, 844, 616, 792, 134, 210, 704, 2, 84, 779, 197, 185, 396, 837, 11, 878, 305, 572, 473, 122, 959, 176, 805, 879, 454, 961, 63, 148, 484, 75, 808, 527, 799, 287, 28, 891, 209, 417, 126, 587, 464, 199, 40, 338, 784, 154, 229, 619, 636, 805, 646, 850, 156, 923, 29, 119, 104, 776, 505, 922, 975, 953, 615, 352, 958, 733, 197, 554, 21, 18, 639, 720, 862, 754, 137, 738, 982, 677, 481, 295, 64, 626, 962, 115, 821, 898, 353, 846, 156, 301, 567, 880, 536, 90, 930, 572, 779, 230, 335, 91, 187, 438, 412, 657, 834, 335, 926, 654, 345, 185, 957, 657, 43, 685, 378, 422, 766, 224, 269, 541, 905, 87, 835, 721, 178, 662, 622, 710, 538, 314, 503, 238, 456, 407, 107, 233, 345, 394, 564, 747, 260, 555, 338, 227, 140, 960, 933, 831, 172, 152, 105, 301, 427, 8, 423, 690, 834, 190, 2, 795, 381, 314, 155, 269, 267, 257, 233, 518, 814, 309, 417, 484, 843, 767, 986, 174, 806, 295, 577, 528, 575, 322, 73, 8, 928, 887, 461, 90, 839, 502, 471, 639, 158, 219, 815, 735, 984, 434, 972, 890, 508, 893, 163, 71, 815, 142, 516, 737, 680, 221, 787, 43, 562, 898, 547, 303, 998, 727, 792, 897, 935, 575, 825, 502, 256, 279, 262, 26, 620, 401, 911, 52, 784, 195, 324, 293, 958, 646, 468, 185, 48, 368, 975, 445, 676, 881, 48, 321, 418, 227, 383, 682, 135, 695, 297, 658, 174, 790, 420, 833, 968, 582, 22, 367, 976, 653, 759, 477, 941, 907, 613, 590, 104, 8, 206, 721, 848, 770, 887, 31, 29, 256, 19, 586, 930, 899, 107, 665, 672, 658, 412, 237, 887, 904, 717, 544, 33, 277, 240, 243, 217, 669, 680, 176, 902, 1, 956, 584, 646, 282, 692, 877, 206, 132, 788, 250, 106, 492, 187, 214, 284, 85, 819, 566, 654, 293, 776, 962, 1000, 43, 311, 90, 475, 658, 609, 355, 964, 624, 997, 426, 645, 100, 536, 647, 233, 625, 133, 462, 608, 480, 152, 191, 375, 653, 433, 201, 338, 309, 138, 590, 472, 326, 2, 914, 46, 116, 294, 790, 937, 760, 207, 840, 33, 113, 112, 564, 594, 627, 949, 753, 744, 173, 911, 919, 829, 81, 714, 520, 538, 268, 773, 807, 770, 302, 737, 87, 681, 31, 7, 105, 653, 984, 468, 645, 587, 842, 970, 818, 332, 72, 894, 279, 759, 866, 169, 194, 423, 845, 852, 993, 274, 623, 873, 377, 587, 225, 857, 443, 487, 656, 320, 813, 460, 430, 726, 667, 710, 875, 810, 408, 644, 864, 56, 660, 528, 404, 120, 289, 750, 885, 987, 755, 881, 827, 165, 691, 870, 753, 277, 701, 390, 433, 731, 677, 137, 641, 60, 207, 825, 913, 255, 765, 183, 498, 349, 85, 434, 552, 852, 103, 288, 5, 209, 267, 821, 939, 216, 483, 524, 491, 960, 951, 39, 409, 529, 650, 531, 821, 99, 462, 831, 171, 174, 617, 146, 546, 125, 187, 335, 784, 612, 609, 628, 397, 977, 596, 629, 68, 250, 586, 956, 704, 55, 808, 213, 596, 192, 62, 773, 486, 605, 705, 594, 417, 322, 531, 247, 263, 811, 343, 722, 680, 466, 786, 331, 4, 849, 750, 739, 921, 409, 427, 613, 873, 282, 759, 958, 255, 18, 163, 646, 217, 949, 93, 895, 354, 921, 339, 112, 676, 300, 940, 823, 257, 491, 551, 773, 264, 567, 519, 589, 556, 433, 388, 396, 995, 523, 107, 394, 767, 683, 81, 414, 452, 846, 268, 917, 814, 20, 498, 533, 631, 888, 202, 829, 9, 834, 262, 27, 813, 971, 658, 779, 398, 248, 665, 809, 269, 376, 271, 265, 867, 7, 22, 184, 785, 571, 758, 696, 889, 587, 22, 103, 412, 119, 311, 275, 984, 965, 673, 422, 414, 71, 453, 144, 533, 817, 401, 707, 815, 915, 427, 238, 890, 500, 273, 684, 864, 984, 377, 265, 251, 299, 218, 920, 635, 51, 94, 186, 969, 343, 807, 225, 196, 943, 76, 501, 530, 338, 757, 855, 230, 302, 487, 480, 633, 775, 340, 941, 457, 29, 422, 530, 183, 880, 597, 521, 285, 133, 276, 642, 683, 684, 32, 778, 695, 682, 523, 854, 963, 584, 433, 542, 802, 677, 777, 310, 602, 236, 578, 15, 534, 728, 911, 486, 873, 201, 12, 554, 344, 396, 599, 756, 863, 324, 583, 630, 686, 584, 466, 810, 20, 787, 168, 183, 672, 455, 343, 79, 52, 268, 97, 697, 201, 381, 422, 705, 817, 632, 218, 138, 560, 367, 725, 217, 691, 359, 281, 181, 755, 505, 544, 833, 27, 546, 329, 244, 829, 243, 410, 434, 139, 310, 4, 501, 628, 1000, 960, 332, 964, 105, 149, 530, 683, 594, 37, 408, 493, 387, 762, 745, 87, 466, 697, 789, 664, 978, 740, 394, 836, 613, 598, 594, 753, 709, 459, 788, 422, 741, 915, 530, 149, 906, 213, 211, 46, 420, 402, 819, 173, 378, 770, 24, 413, 149, 771, 300, 142, 113, 209, 704, 116, 40, 240, 43, 731, 759, 533, 334, 40, 716, 243, 550, 988, 241, 688, 438, 534, 405, 702, 521, 33, 820, 239, 351, 480, 595, 758, 119, 383, 622, 471, 244, 796, 964, 646, 535, 155, 479, 785, 316, 438, 448, 310, 617, 297, 922, 839, 308, 67, 24, 814, 424, 121, 48, 781, 207, 921, 358, 628, 347, 656, 142, 268, 123, 64, 563, 992, 7, 879, 288, 161, 32, 350, 87, 496, 459, 168, 884, 584, 760, 241, 722, 696, 775, 186, 950, 457, 81, 922, 306, 896, 208, 73, 514, 549, 674, 641, 362, 760, 516, 145, 585, 353, 546, 159, 253, 265, 664, 24, 417, 402, 874, 123, 515, 811, 409, 957, 255, 496, 306, 282, 71, 777, 655, 837, 477, 183, 661, 935, 557, 264, 523, 854, 820, 627, 742, 32, 138, 12, 451, 490, 18, 820, 548, 732, 966, 765, 747, 639, 525, 768, 783, 299, 805, 150, 533, 921, 219, 891, 485, 730, 152, 52, 252, 596, 893, 565, 523, 380, 501, 714, 868, 347, 674, 347, 254, 55, 405, 610, 510, 449, 770, 454, 692, 556, 950, 333, 442, 768, 296, 795, 325, 154, 546, 561, 306, 274, 998, 504, 711, 420, 551, 286, 169, 833, 682, 305, 407, 560, 65, 615, 995, 686, 467, 121, 539, 582, 698, 883, 270, 105, 970, 535, 888, 605, 902, 602, 727, 635, 953, 752, 974, 417, 207, 202, 457, 557, 690, 466, 965, 406, 9, 528, 658, 242, 743, 197, 904, 446, 953, 614, 724, 206, 882, 991, 150, 580, 161, 881, 865, 912, 769, 388, 632, 59, 107, 556, 741, 294, 14, 46, 330, 373, 907, 691, 883, 756, 701, 764, 222, 759, 581, 645, 496, 448, 844, 800, 193, 860, 540, 63, 790, 881, 435, 430, 271, 195, 535, 438, 654, 658, 194, 771, 451, 408, 185, 611, 680, 783, 821, 350, 547, 615, 389, 11, 729, 900, 474, 922, 52, 585, 397, 639, 361, 719, 203, 287, 412, 418, 417, 943, 514, 562, 129, 532, 761, 703, 957, 597, 372, 871, 980, 972, 115, 677, 159, 267, 777, 874, 592, 321, 486, 309, 266, 206, 950, 933, 186, 847, 749, 725, 255, 532, 816, 702, 934, 56, 332, 371, 416, 987, 969, 832, 658, 775, 849, 214, 627, 984, 167, 446, 368, 855, 464, 139, 375, 647, 546, 28, 816, 285, 36, 626, 671, 608, 92, 21, 725, 509, 560, 84, 474, 710, 226, 407, 720, 276, 621, 57, 705, 237, 433, 995, 778, 185, 799, 398, 496, 280, 174, 987, 390, 207, 803, 106, 414, 116, 35, 984, 489, 654, 148, 365, 60, 843, 8, 940, 962, 199, 288, 179, 26, 476, 526, 884, 483, 175, 430, 160, 34, 388, 833, 82, 974, 842, 995, 596, 309, 771, 149, 523, 833, 537, 766, 180, 862, 151, 334, 593, 918, 120, 280, 773, 248, 394, 181, 991, 788, 380, 995, 886, 321, 76, 717, 637, 265, 9, 287, 933, 682, 669, 698, 271, 880, 473, 928, 612, 682, 872, 982, 715, 945, 413, 316, 261, 371, 895, 327, 246, 92, 720, 933, 424, 154, 763, 849, 408, 474, 374, 536, 661, 925, 334, 963, 613, 459, 844, 240, 548, 912, 835, 861, 530, 646, 781, 246, 965, 801, 489, 599, 947, 14, 274, 878, 48, 698, 298, 245, 50, 285, 367, 654, 813, 600, 154, 525, 927, 235, 698, 221, 303, 544, 833, 539, 192, 575, 53, 733, 558, 334, 628, 357, 492, 587, 800, 192, 964, 849, 189, 911, 268, 847, 214, 862, 865, 560, 680, 755, 636, 336, 770, 904, 536, 860, 362, 448, 681, 319, 789, 796, 206, 401, 882, 516, 36, 809, 183, 469, 904, 766, 745, 17, 249, 115, 981, 215, 161, 714, 782, 717, 533, 890, 601, 836, 994, 581, 628, 238, 862, 362, 576, 59, 674, 843, 616, 808, 570, 556, 833, 185, 393, 804, 740, 911, 730, 672, 637, 227, 775, 818, 232, 375, 433, 735, 924, 769, 409, 889, ]
Time Consuming: 0.09000325202941895